;--------------------------------------------------------------------------
; Benchmark created with Zazu
; Benchmark: 		freire2_inv4
; Created:   		2022-01-05 17:30
; Generator of the ideal: 
; 		 s00 - s + 3*r^2 - 3*r00^2
; 		 -2*r*s + 12*r*r00^2 - 3*r - 3*s00 + 3*s + 3*r00 - 4*r*s00 + 6*r00*s00 - 6*x + 6*x00 - 12*r00^3
; 		 -9*r*s - 18*r00*x00 + 9*r00*s00 + 2*s^2 + 18*r*x + 6*r*r00*s - 6*r00^2*s - 4*s00^2 + 18*r00*x - 3*s00 + 6*r00^2*s00 - 18*r*x00 + 3*s + 9*r*s00 + 2*s*s00 - 9*r00*s - 6*r*r00*s00
; 		 -24*r*s - 54*r00*x00 + 36*r*r00*x + 24*r00*s00 + 3*s^2 + 54*r*x - 6*s00*x + 4*r00*s^2 - 2*r00*s00^2 - 6*s*x00 + 12*s*s00 - 2*r00*s*s00 + 6*s00*x00 + 2*r*s^2 + 6*s*x - 4*r*s00^2 - 36*r00^2*s - 36*r00^2*x00 - 15*s00^2 + 2*r*s*s00 - 36*r*r00*x00 + 54*r00*x - 9*s00 + 36*r00^2*s00 - 54*r*x00 + 9*s + 24*r*s00 - 24*r00*s + 36*r00^2*x
; 		 216*r00*s00*x00 + 108*r00*x00 - 54*r00*s00 + 15*s^2 - 216*r00^3*s - 36*r00^2*s00^2 - 4*s^3 + 108*x^2 - 432*r00^3*x00 - 12*s^2*s00 + 108*s00*x - 108*r00*s00^2 + 216*r00^3*s00 + 108*s*x00 + 432*r00^3*x - 66*s*s00 + 108*r00*s*s00 - 108*s00*x00 - 216*r00*s00*x + 36*r00^2*s^2 + 16*s00^3 - 108*s*x + 36*r00^2*s + 51*s00^2 - 108*r00*x + 9*s00 - 36*r00^2*s00 - 9*s + 54*r00*s - 216*x*x00 + 108*x00^2
;--------------------------------------------------------------------------

(set-logic NIA)
(set-option :produce-proofs true)

(declare-const r00 Int)
(declare-const s00 Int)
(declare-const x00 Int)

(assert 
	(exists
		((r Int) (s Int) (x Int))
		(and
			(= (- (+ (- s00 s) (* 3 r r)) (* 3 r00 r00)) 0)
			(= (- (+ (- (+ (- (+ (- (+ (* (- 2) r s) (* 12 r r00 r00)) (* 3 r) (* 3 s00)) (* 3 s) (* 3 r00)) (* 4 r s00)) (* 6 r00 s00)) (* 6 x)) (* 6 x00)) (* 12 r00 r00 r00)) 0)
			(= (- (+ (- (+ (- (+ (- (+ (- (* (- 9) r s) (* 18 r00 x00)) (* 9 r00 s00) (* 2 s s) (* 18 r x) (* 6 r r00 s)) (* 6 r00 r00 s) (* 4 s00 s00)) (* 18 r00 x)) (* 3 s00)) (* 6 r00 r00 s00)) (* 18 r x00)) (* 3 s) (* 9 r s00) (* 2 s s00)) (* 9 r00 s) (* 6 r r00 s00)) 0)
			(= (+ (- (+ (- (+ (- (+ (- (+ (- (+ (- (+ (- (+ (- (+ (- (* (- 24) r s) (* 54 r00 x00)) (* 36 r r00 x) (* 24 r00 s00) (* 3 s s) (* 54 r x)) (* 6 s00 x)) (* 4 r00 s s)) (* 2 r00 s00 s00) (* 6 s x00)) (* 12 s s00)) (* 2 r00 s s00)) (* 6 s00 x00) (* 2 r s s) (* 6 s x)) (* 4 r s00 s00) (* 36 r00 r00 s) (* 36 r00 r00 x00) (* 15 s00 s00)) (* 2 r s s00)) (* 36 r r00 x00)) (* 54 r00 x)) (* 9 s00)) (* 36 r00 r00 s00)) (* 54 r x00)) (* 9 s) (* 24 r s00)) (* 24 r00 s)) (* 36 r00 r00 x)) 0)
			(= (+ (- (+ (- (+ (- (+ (- (+ (- (+ (- (+ (- (+ (- (+ (- (+ (- (+ (* 216 r00 s00 x00) (* 108 r00 x00)) (* 54 r00 s00)) (* 15 s s)) (* 216 r00 r00 r00 s) (* 36 r00 r00 s00 s00) (* 4 s s s)) (* 108 x x)) (* 432 r00 r00 r00 x00) (* 12 s s s00)) (* 108 s00 x)) (* 108 r00 s00 s00)) (* 216 r00 r00 r00 s00) (* 108 s x00) (* 432 r00 r00 r00 x)) (* 66 s s00)) (* 108 r00 s s00)) (* 108 s00 x00) (* 216 r00 s00 x)) (* 36 r00 r00 s s) (* 16 s00 s00 s00)) (* 108 s x)) (* 36 r00 r00 s) (* 51 s00 s00)) (* 108 r00 x)) (* 9 s00)) (* 36 r00 r00 s00) (* 9 s)) (* 54 r00 s)) (* 216 x x00)) (* 108 x00 x00)) 0)

			(or
				(not (= (+ (- (+ (- (+ (- (+ (- (+ (- (+ (- (+ (- (+ (- (+ (- (* (- 24) (+ r 1) (+ s (* 6 r) 3)) (* 54 r00 x00)) (* 36 (+ r 1) r00 (- x s)) (* 24 r00 s00) (* 3 (+ s (* 6 r) 3) (+ s (* 6 r) 3)) (* 54 (+ r 1) (- x s))) (* 6 s00 (- x s))) (* 4 r00 (+ s (* 6 r) 3) (+ s (* 6 r) 3))) (* 2 r00 s00 s00) (* 6 (+ s (* 6 r) 3) x00)) (* 12 (+ s (* 6 r) 3) s00)) (* 2 r00 (+ s (* 6 r) 3) s00)) (* 6 s00 x00) (* 2 (+ r 1) (+ s (* 6 r) 3) (+ s (* 6 r) 3)) (* 6 (+ s (* 6 r) 3) (- x s))) (* 4 (+ r 1) s00 s00) (* 36 r00 r00 (+ s (* 6 r) 3)) (* 36 r00 r00 x00) (* 15 s00 s00)) (* 2 (+ r 1) (+ s (* 6 r) 3) s00)) (* 36 (+ r 1) r00 x00)) (* 54 r00 (- x s))) (* 9 s00)) (* 36 r00 r00 s00)) (* 54 (+ r 1) x00)) (* 9 (+ s (* 6 r) 3)) (* 24 (+ r 1) s00)) (* 24 r00 (+ s (* 6 r) 3))) (* 36 r00 r00 (- x s))) 0))
			)
		)
	)
)
(check-sat)
(get-proof)
(exit)
